! METHOD BASIS OPT

%geom
maxiter 500
end

%pal 
nproc = ncpu
end

%maxcore 2000

* xyzfile netcharge spin ../1-initialization/initial.xyz *
