! METHOD BASIS OPT

%geom
maxiter 500
end

%maxcore 2000

* xyzfile netcharge spin ../initial/initial.xyz *
